%%% static parameters %%%
Fact = [3];
Distr1 = [10];
Distr2 = [20];
Clients_N = [40];
Demand_W = [15];
Lt0 = [4];
Lt1 = [4];
SS_ = [0.85];
DS_D = [7];
K = [200];
MA = [500];
%%% dynamic parameters %%%
lost_ratio_sales_ret_th = 0.5764321019242339;
lost_ratio_sales_ret_w = 14;
lost_ratio_sales_dis_th = 0.8863080173000638;
lost_ratio_sales_dis_w = 76;
lost_ratio_sales_fac_th = 0.9775293443961404;
lost_ratio_sales_fac_w = 76;
stock_customer_MA_mean_relative_th = 0.5030337901158405;
stock_customer_MA_mean_relative_w = 37;
stock_distributor_MA_mean_relative_th = 0.7178368230669495;
stock_distributor_MA_mean_relative_w = 56;
stock_retailer_MA_mean_relative_th = 0.1234192334827644;
stock_retailer_MA_mean_relative_w = 21;
stock_factory_MA_mean_relative_th = 0.19247961571951588;
stock_factory_MA_mean_relative_w = 86;
